RT is False
Default write of storage_offers_DA.csv just to have a file (but constraint should be inactive)
Reading model...
...model read.
creating competitive generators file...
...competitive generators recorded.
Loading data...
.. day-ahead data with real-time VRE data read.
Compiling instance...
...instance created.
Creating Offer Mitigation (model will solve as dispatch if TRUE)...
NOTE: storage offers will not be mitigated
...storage offer mitigation file created
Converting model to MPEC...
...converted
NOTE: initial MIP solve with only storage competitive to get feasible solution
Solving...

Welcome to IBM(R) ILOG(R) CPLEX(R) Interactive Optimizer 12.9.0.0
  with Simplex, Mixed Integer & Barrier Optimizers
5725-A06 5725-A29 5724-Y48 5724-Y49 5724-Y54 5724-Y55 5655-Y21
Copyright IBM Corp. 1988, 2019.  All Rights Reserved.

Type 'help' for a list of available commands.
Type 'help' followed by a command name for more
information on commands.

CPLEX> Logfile 'cplex.log' closed.
Logfile 'C:\Users\llavin\Desktop\test919\logs\tmpr6ro_s59.cplex.log' open.
CPLEX> New value for parallel optimization mode: -1
CPLEX> New value for mixed integer optimality gap tolerance: 0.01
CPLEX> New value for integrality tolerance: 1e-09
CPLEX> New value for feasibility tolerance: 0.1
CPLEX> New value for deterministic time limit in ticks: 100000
CPLEX> Problem 'C:\Users\llavin\Desktop\test919\logs\tmplmuaggrg.pyomo.lp' read.
Read time = 0.23 sec. (13.86 ticks)
CPLEX> Problem name         : C:\Users\llavin\Desktop\test919\logs\tmplmuaggrg.pyomo.lp
Objective sense      : Maximize
Variables            :   53321  [Nneg: 1,  Box: 21806,  Free: 4416,
                                 Binary: 27098]
Objective nonzeros   :    8980
Linear constraints   :  122164  [Less: 40983,  Greater: 58612,  Equal: 22569]
  Nonzeros           :  288505
  RHS nonzeros       :   66982

Variables            : Min LB: -5000.000        Max UB: 1000000.       
Objective nonzeros   : Min   : 0.1083333        Max   : 741.5750       
Linear constraints   :
  Nonzeros           : Min   : 0.1083333        Max   : 1000000.       
  RHS nonzeros       : Min   : 0.1083333        Max   : 1000000.       
CPLEX> CPXPARAM_Parallel                                -1
CPXPARAM_Simplex_Tolerances_Feasibility          0.10000000000000001
CPXPARAM_DetTimeLimit                            100000
CPXPARAM_MIP_Tolerances_MIPGap                   0.01
CPXPARAM_MIP_Tolerances_Integrality              1.0000000000000001e-09
Tried aggregator 3 times.
MIP Presolve eliminated 88051 rows and 18907 columns.
MIP Presolve added 3379 rows and 0 columns.
MIP Presolve modified 23596 coefficients.
Aggregator did 12871 substitutions.
Reduced MIP has 24621 rows, 20987 columns, and 68977 nonzeros.
Reduced MIP has 8301 binaries, 0 generals, 0 SOSs, and 0 indicators.
Presolve time = 0.30 sec. (172.95 ticks)
Probing fixed 443 vars, tightened 2936 bounds.
Probing time = 1.26 sec. (912.83 ticks)
Tried aggregator 2 times.
MIP Presolve eliminated 987 rows and 887 columns.
MIP Presolve modified 2190 coefficients.
Aggregator did 54 substitutions.
Reduced MIP has 23580 rows, 20046 columns, and 65949 nonzeros.
Reduced MIP has 7858 binaries, 0 generals, 0 SOSs, and 0 indicators.
Presolve time = 0.11 sec. (66.19 ticks)
Probing fixed 0 vars, tightened 1 bounds.
Probing time = 0.05 sec. (19.49 ticks)
Clique table members: 6299.
MIP emphasis: balance optimality and feasibility.
MIP search method: dynamic search.
Parallel mode: opportunistic, using up to 32 threads.
Root relaxation solution time = 0.41 sec. (435.86 ticks)

        Nodes                                         Cuts/
   Node  Left     Objective  IInf  Best Integer    Best Bound    ItCnt     Gap

      0     0     3706.8704   739                   3706.8704     3433         
      0     0     3706.8704   679                   Cuts: 832     3730         
      0     0     3706.8704   570                   Cuts: 620     3944         
      0     0     3706.8704   511                   Cuts: 430     4040         
      0     0     3706.8704   472                   Cuts: 317     4087         
      0     0     3706.8704   452                   Cuts: 226     4115         
      0     0     3706.8704   435                   Cuts: 139     4135         
      0     0     3706.8704   426                   Cuts: 122     4145         
      0     0     3706.8704   421                   Cuts: 107     4154         
      0     0     3706.8704   420                    Cuts: 96     4155         
      0     7    infeasible                         3706.8690     4817         
Elapsed time = 9.52 sec. (5768.29 ticks, tree = 0.02 MB, solutions = 0)
    547   480     1949.7155   370                   3701.3841     6209         
   1358   444     1077.3462   346                   3701.3841     6143         
   2159   536     1949.7155   318                   3701.3841     6283         
   3144  1268     2435.7293   320                   3701.3841     7164         
   4193  1715     2435.7293   292                   3701.3841     7953         
   5482  2160      849.8276   303                   3701.3841     8604         
   6742  5245     2168.8285   376                   3701.3841    11560         
   8090  4058     2127.0415   277                   3701.3841    11164         
   9506  4690     1949.7155   269                   3701.3841    11401         
* 11248  6159      integral     0    -8214.3692     3701.3841    11904  145.06%
* 11619  6554      integral     0    -7023.1516     3701.3841    12251  152.70%
Elapsed time = 25.23 sec. (8306.99 ticks, tree = 52.78 MB, solutions = 6)
* 11764  5584      integral     0     2793.6447     3701.3841    11801   32.49%
* 12120  7450      integral     0     3225.3658     3701.3841    13476   14.76%
* 13400  9044      integral     0     3427.1527     3701.3841    14543    8.00%
  14029  2160     3702.5280   283     3427.1527     3701.3841    15010    8.00%
  14031  2123        cutoff           3427.1527     3698.2257    26090    7.91%
* 14618    35      integral     0     3621.4028     3698.2257    26613    2.12%
  15171    72     3694.8949    30     3643.5321     3698.2257    26807    1.50%
  16059   170     3698.2257    12     3643.5321     3698.2257    30770    1.50%
* 16473   255      integral     0     3698.1092     3698.2257    33576    0.00%
  16836   253        cutoff           3698.1092     3698.2257    33904    0.00%
  17089   528     3673.0888    17     3698.1092     3698.2257    36790    0.00%

GUB cover cuts applied:  1
Clique cuts applied:  1
Cover cuts applied:  15
Implied bound cuts applied:  50
Flow cuts applied:  152
Mixed integer rounding cuts applied:  20
Gomory fractional cuts applied:  47

Root node processing (before b&c):
  Real time             =    8.64 sec. (5770.40 ticks)
Parallel b&c, 32 threads:
  Real time             =   34.14 sec. (11036.77 ticks)
  Sync time (average)   =    2.43 sec.
  Wait time (average)   =    0.14 sec.
                          ------------
Total (root+branch&cut) =   42.78 sec. (16807.17 ticks)

Solution pool: 27 solutions saved.

MIP - Integer optimal, tolerance (0.01/1e-06):  Objective =  3.6981091872e+03
Current MIP best bound =  3.6982257107e+03 (gap = 0.116523, 0.00%)
Solution time =   42.81 sec.  Iterations = 41076  Nodes = 17095 (262)
Deterministic time = 16807.32 ticks  (392.58 ticks/sec)

CPLEX> Incumbent solution written to file 'C:\Users\llavin\Desktop\test919\logs\tmpu1avbqv5.cplex.sol'.
CPLEX> NOTE: no warmstart specified for MIP iteration, default behavior is true
NOTE: resolving with all competitive generators using storage-only solution to warmstart
Solving...

Welcome to IBM(R) ILOG(R) CPLEX(R) Interactive Optimizer 12.9.0.0
  with Simplex, Mixed Integer & Barrier Optimizers
5725-A06 5725-A29 5724-Y48 5724-Y49 5724-Y54 5724-Y55 5655-Y21
Copyright IBM Corp. 1988, 2019.  All Rights Reserved.

Type 'help' for a list of available commands.
Type 'help' followed by a command name for more
information on commands.

CPLEX> Logfile 'cplex.log' closed.
Logfile 'C:\Users\llavin\Desktop\test919\logs\tmpzeltpb7w.cplex.log' open.
CPLEX> New value for parallel optimization mode: -1
CPLEX> New value for mixed integer optimality gap tolerance: 0.01
CPLEX> New value for integrality tolerance: 1e-09
CPLEX> New value for feasibility tolerance: 0.1
CPLEX> New value for deterministic time limit in ticks: 100000
CPLEX> Problem 'C:\Users\llavin\Desktop\test919\logs\tmpbpexlfx0.pyomo.lp' read.
Read time = 0.22 sec. (13.88 ticks)
CPLEX> MIP start file 'C:\Users\llavin\Desktop\test919\logs\tmp3j1miss7.cplex.mst' read.
CPLEX> Problem name         : C:\Users\llavin\Desktop\test919\logs\tmpbpexlfx0.pyomo.lp
Objective sense      : Maximize
Variables            :   54041  [Nneg: 1,  Box: 22526,  Free: 4416,
                                 Binary: 27098]
Objective nonzeros   :    9700
Linear constraints   :  122164  [Less: 40983,  Greater: 58612,  Equal: 22569]
  Nonzeros           :  288505
  RHS nonzeros       :   66982

Variables            : Min LB: -5000.000        Max UB: 1000000.       
Objective nonzeros   : Min   : 0.1083333        Max   : 741.5750       
Linear constraints   :
  Nonzeros           : Min   : 0.1083333        Max   : 1000000.       
  RHS nonzeros       : Min   : 0.1083333        Max   : 1000000.       
CPLEX> CPXPARAM_Parallel                                -1
CPXPARAM_Simplex_Tolerances_Feasibility          0.10000000000000001
CPXPARAM_DetTimeLimit                            100000
CPXPARAM_MIP_Tolerances_MIPGap                   0.01
CPXPARAM_MIP_Tolerances_Integrality              1.0000000000000001e-09
Warning:  No solution found from 1 MIP starts.
Retaining values of one MIP start for possible repair.
Tried aggregator 3 times.
MIP Presolve eliminated 88051 rows and 19627 columns.
MIP Presolve added 3379 rows and 0 columns.
MIP Presolve modified 23596 coefficients.
Aggregator did 12871 substitutions.
Reduced MIP has 24621 rows, 20987 columns, and 68977 nonzeros.
Reduced MIP has 8301 binaries, 0 generals, 0 SOSs, and 0 indicators.
Presolve time = 0.28 sec. (173.30 ticks)
Probing fixed 443 vars, tightened 2936 bounds.
Probing time = 1.27 sec. (912.83 ticks)
Tried aggregator 2 times.
MIP Presolve eliminated 987 rows and 887 columns.
MIP Presolve modified 2190 coefficients.
Aggregator did 54 substitutions.
Reduced MIP has 23580 rows, 20046 columns, and 65949 nonzeros.
Reduced MIP has 7858 binaries, 0 generals, 0 SOSs, and 0 indicators.
Presolve time = 0.11 sec. (66.19 ticks)
Probing fixed 0 vars, tightened 1 bounds.
Probing time = 0.03 sec. (19.49 ticks)
Clique table members: 6299.
MIP emphasis: balance optimality and feasibility.
MIP search method: dynamic search.
Parallel mode: opportunistic, using up to 32 threads.
Root relaxation solution time = 0.41 sec. (435.86 ticks)

        Nodes                                         Cuts/
   Node  Left     Objective  IInf  Best Integer    Best Bound    ItCnt     Gap

      0     0     3706.8704   739                   3706.8704     3433         
      0     0     3706.8704   679                   Cuts: 832     3730         
      0     0     3706.8704   570                   Cuts: 620     3944         
      0     0     3706.8704   511                   Cuts: 430     4040         
      0     0     3706.8704   472                   Cuts: 317     4087         
      0     0     3706.8704   452                   Cuts: 226     4115         
      0     0     3706.8704   435                   Cuts: 139     4135         
      0     0     3706.8704   426                   Cuts: 122     4145         
      0     0     3706.8704   421                   Cuts: 107     4154         
      0     0     3706.8704   420                    Cuts: 96     4155         
Repair heuristic found nothing.
      0    12    infeasible                          Cuts: 10     4449         
Elapsed time = 9.97 sec. (5830.12 ticks, tree = 0.02 MB, solutions = 0)
    588    49     3702.5280   414                   3706.8690     5687         
   1229   146     2433.4697   378                   3706.8690     6955         
   1971   484     2435.5291   371                   3706.8690     7553         
   2902  1116    -4642.8304   369                   3706.8690     9000         
   4236  2780     1572.2339   336                   3706.8690    12654         
   5162  3457    -9607.3355   350                   3706.8690    13950         
   5716  4387    infeasible                         3706.8690    15928         
   6380  5186  -138866.8563   227                   3706.8690    21969         
   7181  5757  -193290.9978   209                   3706.8690    27196         
* 11505+ 9246                      -143759.3255     3706.8690           102.58%
Elapsed time = 27.78 sec. (8900.23 ticks, tree = 95.41 MB, solutions = 5)
* 14126  9913      integral     0     3702.5268     3706.8690    34566    0.12%

Clique cuts applied:  10
Cover cuts applied:  1
Implied bound cuts applied:  28
Flow cuts applied:  693
Mixed integer rounding cuts applied:  41
Gomory fractional cuts applied:  75

Root node processing (before b&c):
  Real time             =    8.81 sec. (5822.58 ticks)
Parallel b&c, 32 threads:
  Real time             =   20.44 sec. (4014.94 ticks)
  Sync time (average)   =    0.59 sec.
  Wait time (average)   =    0.00 sec.
                          ------------
Total (root+branch&cut) =   29.25 sec. (9837.51 ticks)

Solution pool: 6 solutions saved.

MIP - Integer optimal, tolerance (0.01/1e-06):  Objective =  3.7025267674e+03
Current MIP best bound =  3.7068689543e+03 (gap = 4.34219, 0.12%)
Solution time =   29.27 sec.  Iterations = 38219  Nodes = 14835 (1)
Deterministic time = 9837.67 ticks  (336.15 ticks/sec)

CPLEX> Incumbent solution written to file 'C:\Users\llavin\Desktop\test919\logs\tmpgpq4udc0.cplex.sol'.
CPLEX> Exporting results... 
